(declare-fun e () String)
(declare-fun c () String)
(declare-fun b () String)
(declare-fun a () String)
(declare-fun h () String)
(assert (= (str.++ b c "d" h "f" a) (str.++ "h" h a c "c")))
(assert (= "cbbdg" "gcg"))
(assert (= "cc" (str.++ b "g" e "ae")))

(check-sat)
